predicate fzn_all_different_int(array [int] of var int: x);
array [1..2] of int: X_INTRODUCED_211_ = [1,-1];
array [1..3] of int: X_INTRODUCED_213_ = [1,-1,1];
array [1..4] of int: X_INTRODUCED_320_ = [1,1,-1,-1];
var 1..14: X_INTRODUCED_0_;
var 1..14: X_INTRODUCED_1_;
var 1..14: X_INTRODUCED_2_;
var 1..14: X_INTRODUCED_3_;
var 1..14: X_INTRODUCED_4_;
var 1..14: X_INTRODUCED_5_;
var 1..14: X_INTRODUCED_6_;
var 1..14: X_INTRODUCED_7_;
var 1..14: X_INTRODUCED_8_;
var 1..14: X_INTRODUCED_9_;
var 1..14: X_INTRODUCED_10_;
var 1..14: X_INTRODUCED_11_;
var 1..14: X_INTRODUCED_12_;
var 1..14: X_INTRODUCED_13_;
var {-13,-12,-11,-10,-9,-8,-7,-6,-5,-4,-3,-2,-1,1,2,3,4,5,6,7,8,9,10,11,12,13}: X_INTRODUCED_16_:: is_defined_var;
var {-13,-12,-11,-10,-9,-8,-7,-6,-5,-4,-3,-2,-1,1,2,3,4,5,6,7,8,9,10,11,12,13}: X_INTRODUCED_17_:: is_defined_var;
var {-13,-12,-11,-10,-9,-8,-7,-6,-5,-4,-3,-2,-1,1,2,3,4,5,6,7,8,9,10,11,12,13}: X_INTRODUCED_18_:: is_defined_var;
var {-13,-12,-11,-10,-9,-8,-7,-6,-5,-4,-3,-2,-1,1,2,3,4,5,6,7,8,9,10,11,12,13}: X_INTRODUCED_19_:: is_defined_var;
var {-13,-12,-11,-10,-9,-8,-7,-6,-5,-4,-3,-2,-1,1,2,3,4,5,6,7,8,9,10,11,12,13}: X_INTRODUCED_20_:: is_defined_var;
var {-13,-12,-11,-10,-9,-8,-7,-6,-5,-4,-3,-2,-1,1,2,3,4,5,6,7,8,9,10,11,12,13}: X_INTRODUCED_21_:: is_defined_var;
var {-13,-12,-11,-10,-9,-8,-7,-6,-5,-4,-3,-2,-1,1,2,3,4,5,6,7,8,9,10,11,12,13}: X_INTRODUCED_22_:: is_defined_var;
var {-13,-12,-11,-10,-9,-8,-7,-6,-5,-4,-3,-2,-1,1,2,3,4,5,6,7,8,9,10,11,12,13}: X_INTRODUCED_23_:: is_defined_var;
var {-13,-12,-11,-10,-9,-8,-7,-6,-5,-4,-3,-2,-1,1,2,3,4,5,6,7,8,9,10,11,12,13}: X_INTRODUCED_24_:: is_defined_var;
var {-13,-12,-11,-10,-9,-8,-7,-6,-5,-4,-3,-2,-1,1,2,3,4,5,6,7,8,9,10,11,12,13}: X_INTRODUCED_25_:: is_defined_var;
var {-13,-12,-11,-10,-9,-8,-7,-6,-5,-4,-3,-2,-1,1,2,3,4,5,6,7,8,9,10,11,12,13}: X_INTRODUCED_26_:: is_defined_var;
var {-13,-12,-11,-10,-9,-8,-7,-6,-5,-4,-3,-2,-1,1,2,3,4,5,6,7,8,9,10,11,12,13}: X_INTRODUCED_27_:: is_defined_var;
var {-13,-12,-11,-10,-9,-8,-7,-6,-5,-4,-3,-2,-1,1,2,3,4,5,6,7,8,9,10,11,12,13}: X_INTRODUCED_28_:: is_defined_var;
var {-13,-12,-11,-10,-9,-8,-7,-6,-5,-4,-3,-2,-1,1,2,3,4,5,6,7,8,9,10,11,12,13}: X_INTRODUCED_31_:: is_defined_var;
var {-13,-12,-11,-10,-9,-8,-7,-6,-5,-4,-3,-2,-1,1,2,3,4,5,6,7,8,9,10,11,12,13}: X_INTRODUCED_32_:: is_defined_var;
var {-13,-12,-11,-10,-9,-8,-7,-6,-5,-4,-3,-2,-1,1,2,3,4,5,6,7,8,9,10,11,12,13}: X_INTRODUCED_33_:: is_defined_var;
var {-13,-12,-11,-10,-9,-8,-7,-6,-5,-4,-3,-2,-1,1,2,3,4,5,6,7,8,9,10,11,12,13}: X_INTRODUCED_34_:: is_defined_var;
var {-13,-12,-11,-10,-9,-8,-7,-6,-5,-4,-3,-2,-1,1,2,3,4,5,6,7,8,9,10,11,12,13}: X_INTRODUCED_35_:: is_defined_var;
var {-13,-12,-11,-10,-9,-8,-7,-6,-5,-4,-3,-2,-1,1,2,3,4,5,6,7,8,9,10,11,12,13}: X_INTRODUCED_36_:: is_defined_var;
var {-13,-12,-11,-10,-9,-8,-7,-6,-5,-4,-3,-2,-1,1,2,3,4,5,6,7,8,9,10,11,12,13}: X_INTRODUCED_37_:: is_defined_var;
var {-13,-12,-11,-10,-9,-8,-7,-6,-5,-4,-3,-2,-1,1,2,3,4,5,6,7,8,9,10,11,12,13}: X_INTRODUCED_38_:: is_defined_var;
var {-13,-12,-11,-10,-9,-8,-7,-6,-5,-4,-3,-2,-1,1,2,3,4,5,6,7,8,9,10,11,12,13}: X_INTRODUCED_39_:: is_defined_var;
var {-13,-12,-11,-10,-9,-8,-7,-6,-5,-4,-3,-2,-1,1,2,3,4,5,6,7,8,9,10,11,12,13}: X_INTRODUCED_40_:: is_defined_var;
var {-13,-12,-11,-10,-9,-8,-7,-6,-5,-4,-3,-2,-1,1,2,3,4,5,6,7,8,9,10,11,12,13}: X_INTRODUCED_41_:: is_defined_var;
var {-13,-12,-11,-10,-9,-8,-7,-6,-5,-4,-3,-2,-1,1,2,3,4,5,6,7,8,9,10,11,12,13}: X_INTRODUCED_42_:: is_defined_var;
var {-13,-12,-11,-10,-9,-8,-7,-6,-5,-4,-3,-2,-1,1,2,3,4,5,6,7,8,9,10,11,12,13}: X_INTRODUCED_46_:: is_defined_var;
var {-13,-12,-11,-10,-9,-8,-7,-6,-5,-4,-3,-2,-1,1,2,3,4,5,6,7,8,9,10,11,12,13}: X_INTRODUCED_47_:: is_defined_var;
var {-13,-12,-11,-10,-9,-8,-7,-6,-5,-4,-3,-2,-1,1,2,3,4,5,6,7,8,9,10,11,12,13}: X_INTRODUCED_48_:: is_defined_var;
var {-13,-12,-11,-10,-9,-8,-7,-6,-5,-4,-3,-2,-1,1,2,3,4,5,6,7,8,9,10,11,12,13}: X_INTRODUCED_49_:: is_defined_var;
var {-13,-12,-11,-10,-9,-8,-7,-6,-5,-4,-3,-2,-1,1,2,3,4,5,6,7,8,9,10,11,12,13}: X_INTRODUCED_50_:: is_defined_var;
var {-13,-12,-11,-10,-9,-8,-7,-6,-5,-4,-3,-2,-1,1,2,3,4,5,6,7,8,9,10,11,12,13}: X_INTRODUCED_51_:: is_defined_var;
var {-13,-12,-11,-10,-9,-8,-7,-6,-5,-4,-3,-2,-1,1,2,3,4,5,6,7,8,9,10,11,12,13}: X_INTRODUCED_52_:: is_defined_var;
var {-13,-12,-11,-10,-9,-8,-7,-6,-5,-4,-3,-2,-1,1,2,3,4,5,6,7,8,9,10,11,12,13}: X_INTRODUCED_53_:: is_defined_var;
var {-13,-12,-11,-10,-9,-8,-7,-6,-5,-4,-3,-2,-1,1,2,3,4,5,6,7,8,9,10,11,12,13}: X_INTRODUCED_54_:: is_defined_var;
var {-13,-12,-11,-10,-9,-8,-7,-6,-5,-4,-3,-2,-1,1,2,3,4,5,6,7,8,9,10,11,12,13}: X_INTRODUCED_55_:: is_defined_var;
var {-13,-12,-11,-10,-9,-8,-7,-6,-5,-4,-3,-2,-1,1,2,3,4,5,6,7,8,9,10,11,12,13}: X_INTRODUCED_56_:: is_defined_var;
var {-13,-12,-11,-10,-9,-8,-7,-6,-5,-4,-3,-2,-1,1,2,3,4,5,6,7,8,9,10,11,12,13}: X_INTRODUCED_61_:: is_defined_var;
var {-13,-12,-11,-10,-9,-8,-7,-6,-5,-4,-3,-2,-1,1,2,3,4,5,6,7,8,9,10,11,12,13}: X_INTRODUCED_62_:: is_defined_var;
var {-13,-12,-11,-10,-9,-8,-7,-6,-5,-4,-3,-2,-1,1,2,3,4,5,6,7,8,9,10,11,12,13}: X_INTRODUCED_63_:: is_defined_var;
var {-13,-12,-11,-10,-9,-8,-7,-6,-5,-4,-3,-2,-1,1,2,3,4,5,6,7,8,9,10,11,12,13}: X_INTRODUCED_64_:: is_defined_var;
var {-13,-12,-11,-10,-9,-8,-7,-6,-5,-4,-3,-2,-1,1,2,3,4,5,6,7,8,9,10,11,12,13}: X_INTRODUCED_65_:: is_defined_var;
var {-13,-12,-11,-10,-9,-8,-7,-6,-5,-4,-3,-2,-1,1,2,3,4,5,6,7,8,9,10,11,12,13}: X_INTRODUCED_66_:: is_defined_var;
var {-13,-12,-11,-10,-9,-8,-7,-6,-5,-4,-3,-2,-1,1,2,3,4,5,6,7,8,9,10,11,12,13}: X_INTRODUCED_67_:: is_defined_var;
var {-13,-12,-11,-10,-9,-8,-7,-6,-5,-4,-3,-2,-1,1,2,3,4,5,6,7,8,9,10,11,12,13}: X_INTRODUCED_68_:: is_defined_var;
var {-13,-12,-11,-10,-9,-8,-7,-6,-5,-4,-3,-2,-1,1,2,3,4,5,6,7,8,9,10,11,12,13}: X_INTRODUCED_69_:: is_defined_var;
var {-13,-12,-11,-10,-9,-8,-7,-6,-5,-4,-3,-2,-1,1,2,3,4,5,6,7,8,9,10,11,12,13}: X_INTRODUCED_70_:: is_defined_var;
var {-13,-12,-11,-10,-9,-8,-7,-6,-5,-4,-3,-2,-1,1,2,3,4,5,6,7,8,9,10,11,12,13}: X_INTRODUCED_76_:: is_defined_var;
var {-13,-12,-11,-10,-9,-8,-7,-6,-5,-4,-3,-2,-1,1,2,3,4,5,6,7,8,9,10,11,12,13}: X_INTRODUCED_77_:: is_defined_var;
var {-13,-12,-11,-10,-9,-8,-7,-6,-5,-4,-3,-2,-1,1,2,3,4,5,6,7,8,9,10,11,12,13}: X_INTRODUCED_78_:: is_defined_var;
var {-13,-12,-11,-10,-9,-8,-7,-6,-5,-4,-3,-2,-1,1,2,3,4,5,6,7,8,9,10,11,12,13}: X_INTRODUCED_79_:: is_defined_var;
var {-13,-12,-11,-10,-9,-8,-7,-6,-5,-4,-3,-2,-1,1,2,3,4,5,6,7,8,9,10,11,12,13}: X_INTRODUCED_80_:: is_defined_var;
var {-13,-12,-11,-10,-9,-8,-7,-6,-5,-4,-3,-2,-1,1,2,3,4,5,6,7,8,9,10,11,12,13}: X_INTRODUCED_81_:: is_defined_var;
var {-13,-12,-11,-10,-9,-8,-7,-6,-5,-4,-3,-2,-1,1,2,3,4,5,6,7,8,9,10,11,12,13}: X_INTRODUCED_82_:: is_defined_var;
var {-13,-12,-11,-10,-9,-8,-7,-6,-5,-4,-3,-2,-1,1,2,3,4,5,6,7,8,9,10,11,12,13}: X_INTRODUCED_83_:: is_defined_var;
var {-13,-12,-11,-10,-9,-8,-7,-6,-5,-4,-3,-2,-1,1,2,3,4,5,6,7,8,9,10,11,12,13}: X_INTRODUCED_84_:: is_defined_var;
var {-13,-12,-11,-10,-9,-8,-7,-6,-5,-4,-3,-2,-1,1,2,3,4,5,6,7,8,9,10,11,12,13}: X_INTRODUCED_91_:: is_defined_var;
var {-13,-12,-11,-10,-9,-8,-7,-6,-5,-4,-3,-2,-1,1,2,3,4,5,6,7,8,9,10,11,12,13}: X_INTRODUCED_92_:: is_defined_var;
var {-13,-12,-11,-10,-9,-8,-7,-6,-5,-4,-3,-2,-1,1,2,3,4,5,6,7,8,9,10,11,12,13}: X_INTRODUCED_93_:: is_defined_var;
var {-13,-12,-11,-10,-9,-8,-7,-6,-5,-4,-3,-2,-1,1,2,3,4,5,6,7,8,9,10,11,12,13}: X_INTRODUCED_94_:: is_defined_var;
var {-13,-12,-11,-10,-9,-8,-7,-6,-5,-4,-3,-2,-1,1,2,3,4,5,6,7,8,9,10,11,12,13}: X_INTRODUCED_95_:: is_defined_var;
var {-13,-12,-11,-10,-9,-8,-7,-6,-5,-4,-3,-2,-1,1,2,3,4,5,6,7,8,9,10,11,12,13}: X_INTRODUCED_96_:: is_defined_var;
var {-13,-12,-11,-10,-9,-8,-7,-6,-5,-4,-3,-2,-1,1,2,3,4,5,6,7,8,9,10,11,12,13}: X_INTRODUCED_97_:: is_defined_var;
var {-13,-12,-11,-10,-9,-8,-7,-6,-5,-4,-3,-2,-1,1,2,3,4,5,6,7,8,9,10,11,12,13}: X_INTRODUCED_98_:: is_defined_var;
var {-13,-12,-11,-10,-9,-8,-7,-6,-5,-4,-3,-2,-1,1,2,3,4,5,6,7,8,9,10,11,12,13}: X_INTRODUCED_106_:: is_defined_var;
var {-13,-12,-11,-10,-9,-8,-7,-6,-5,-4,-3,-2,-1,1,2,3,4,5,6,7,8,9,10,11,12,13}: X_INTRODUCED_107_:: is_defined_var;
var {-13,-12,-11,-10,-9,-8,-7,-6,-5,-4,-3,-2,-1,1,2,3,4,5,6,7,8,9,10,11,12,13}: X_INTRODUCED_108_:: is_defined_var;
var {-13,-12,-11,-10,-9,-8,-7,-6,-5,-4,-3,-2,-1,1,2,3,4,5,6,7,8,9,10,11,12,13}: X_INTRODUCED_109_:: is_defined_var;
var {-13,-12,-11,-10,-9,-8,-7,-6,-5,-4,-3,-2,-1,1,2,3,4,5,6,7,8,9,10,11,12,13}: X_INTRODUCED_110_:: is_defined_var;
var {-13,-12,-11,-10,-9,-8,-7,-6,-5,-4,-3,-2,-1,1,2,3,4,5,6,7,8,9,10,11,12,13}: X_INTRODUCED_111_:: is_defined_var;
var {-13,-12,-11,-10,-9,-8,-7,-6,-5,-4,-3,-2,-1,1,2,3,4,5,6,7,8,9,10,11,12,13}: X_INTRODUCED_112_:: is_defined_var;
var {-13,-12,-11,-10,-9,-8,-7,-6,-5,-4,-3,-2,-1,1,2,3,4,5,6,7,8,9,10,11,12,13}: X_INTRODUCED_121_:: is_defined_var;
var {-13,-12,-11,-10,-9,-8,-7,-6,-5,-4,-3,-2,-1,1,2,3,4,5,6,7,8,9,10,11,12,13}: X_INTRODUCED_122_:: is_defined_var;
var {-13,-12,-11,-10,-9,-8,-7,-6,-5,-4,-3,-2,-1,1,2,3,4,5,6,7,8,9,10,11,12,13}: X_INTRODUCED_123_:: is_defined_var;
var {-13,-12,-11,-10,-9,-8,-7,-6,-5,-4,-3,-2,-1,1,2,3,4,5,6,7,8,9,10,11,12,13}: X_INTRODUCED_124_:: is_defined_var;
var {-13,-12,-11,-10,-9,-8,-7,-6,-5,-4,-3,-2,-1,1,2,3,4,5,6,7,8,9,10,11,12,13}: X_INTRODUCED_125_:: is_defined_var;
var {-13,-12,-11,-10,-9,-8,-7,-6,-5,-4,-3,-2,-1,1,2,3,4,5,6,7,8,9,10,11,12,13}: X_INTRODUCED_126_:: is_defined_var;
var {-13,-12,-11,-10,-9,-8,-7,-6,-5,-4,-3,-2,-1,1,2,3,4,5,6,7,8,9,10,11,12,13}: X_INTRODUCED_136_:: is_defined_var;
var {-13,-12,-11,-10,-9,-8,-7,-6,-5,-4,-3,-2,-1,1,2,3,4,5,6,7,8,9,10,11,12,13}: X_INTRODUCED_137_:: is_defined_var;
var {-13,-12,-11,-10,-9,-8,-7,-6,-5,-4,-3,-2,-1,1,2,3,4,5,6,7,8,9,10,11,12,13}: X_INTRODUCED_138_:: is_defined_var;
var {-13,-12,-11,-10,-9,-8,-7,-6,-5,-4,-3,-2,-1,1,2,3,4,5,6,7,8,9,10,11,12,13}: X_INTRODUCED_139_:: is_defined_var;
var {-13,-12,-11,-10,-9,-8,-7,-6,-5,-4,-3,-2,-1,1,2,3,4,5,6,7,8,9,10,11,12,13}: X_INTRODUCED_140_:: is_defined_var;
var {-13,-12,-11,-10,-9,-8,-7,-6,-5,-4,-3,-2,-1,1,2,3,4,5,6,7,8,9,10,11,12,13}: X_INTRODUCED_151_:: is_defined_var;
var {-13,-12,-11,-10,-9,-8,-7,-6,-5,-4,-3,-2,-1,1,2,3,4,5,6,7,8,9,10,11,12,13}: X_INTRODUCED_152_:: is_defined_var;
var {-13,-12,-11,-10,-9,-8,-7,-6,-5,-4,-3,-2,-1,1,2,3,4,5,6,7,8,9,10,11,12,13}: X_INTRODUCED_153_:: is_defined_var;
var {-13,-12,-11,-10,-9,-8,-7,-6,-5,-4,-3,-2,-1,1,2,3,4,5,6,7,8,9,10,11,12,13}: X_INTRODUCED_154_:: is_defined_var;
var {-13,-12,-11,-10,-9,-8,-7,-6,-5,-4,-3,-2,-1,1,2,3,4,5,6,7,8,9,10,11,12,13}: X_INTRODUCED_166_:: is_defined_var;
var {-13,-12,-11,-10,-9,-8,-7,-6,-5,-4,-3,-2,-1,1,2,3,4,5,6,7,8,9,10,11,12,13}: X_INTRODUCED_167_:: is_defined_var;
var {-13,-12,-11,-10,-9,-8,-7,-6,-5,-4,-3,-2,-1,1,2,3,4,5,6,7,8,9,10,11,12,13}: X_INTRODUCED_168_:: is_defined_var;
var {-13,-12,-11,-10,-9,-8,-7,-6,-5,-4,-3,-2,-1,1,2,3,4,5,6,7,8,9,10,11,12,13}: X_INTRODUCED_181_:: is_defined_var;
var {-13,-12,-11,-10,-9,-8,-7,-6,-5,-4,-3,-2,-1,1,2,3,4,5,6,7,8,9,10,11,12,13}: X_INTRODUCED_182_:: is_defined_var;
var {-13,-12,-11,-10,-9,-8,-7,-6,-5,-4,-3,-2,-1,1,2,3,4,5,6,7,8,9,10,11,12,13}: X_INTRODUCED_196_:: is_defined_var;
array [1..14] of var int: costas:: output_array([1..14]) = [X_INTRODUCED_0_,X_INTRODUCED_1_,X_INTRODUCED_2_,X_INTRODUCED_3_,X_INTRODUCED_4_,X_INTRODUCED_5_,X_INTRODUCED_6_,X_INTRODUCED_7_,X_INTRODUCED_8_,X_INTRODUCED_9_,X_INTRODUCED_10_,X_INTRODUCED_11_,X_INTRODUCED_12_,X_INTRODUCED_13_];
array [1..13] of var int: X_INTRODUCED_304_ ::var_is_introduced  = [X_INTRODUCED_16_,X_INTRODUCED_17_,X_INTRODUCED_18_,X_INTRODUCED_19_,X_INTRODUCED_20_,X_INTRODUCED_21_,X_INTRODUCED_22_,X_INTRODUCED_23_,X_INTRODUCED_24_,X_INTRODUCED_25_,X_INTRODUCED_26_,X_INTRODUCED_27_,X_INTRODUCED_28_];
array [1..12] of var int: X_INTRODUCED_305_ ::var_is_introduced  = [X_INTRODUCED_31_,X_INTRODUCED_32_,X_INTRODUCED_33_,X_INTRODUCED_34_,X_INTRODUCED_35_,X_INTRODUCED_36_,X_INTRODUCED_37_,X_INTRODUCED_38_,X_INTRODUCED_39_,X_INTRODUCED_40_,X_INTRODUCED_41_,X_INTRODUCED_42_];
array [1..11] of var int: X_INTRODUCED_306_ ::var_is_introduced  = [X_INTRODUCED_46_,X_INTRODUCED_47_,X_INTRODUCED_48_,X_INTRODUCED_49_,X_INTRODUCED_50_,X_INTRODUCED_51_,X_INTRODUCED_52_,X_INTRODUCED_53_,X_INTRODUCED_54_,X_INTRODUCED_55_,X_INTRODUCED_56_];
array [1..10] of var int: X_INTRODUCED_307_ ::var_is_introduced  = [X_INTRODUCED_61_,X_INTRODUCED_62_,X_INTRODUCED_63_,X_INTRODUCED_64_,X_INTRODUCED_65_,X_INTRODUCED_66_,X_INTRODUCED_67_,X_INTRODUCED_68_,X_INTRODUCED_69_,X_INTRODUCED_70_];
array [1..9] of var int: X_INTRODUCED_308_ ::var_is_introduced  = [X_INTRODUCED_76_,X_INTRODUCED_77_,X_INTRODUCED_78_,X_INTRODUCED_79_,X_INTRODUCED_80_,X_INTRODUCED_81_,X_INTRODUCED_82_,X_INTRODUCED_83_,X_INTRODUCED_84_];
array [1..8] of var int: X_INTRODUCED_309_ ::var_is_introduced  = [X_INTRODUCED_91_,X_INTRODUCED_92_,X_INTRODUCED_93_,X_INTRODUCED_94_,X_INTRODUCED_95_,X_INTRODUCED_96_,X_INTRODUCED_97_,X_INTRODUCED_98_];
array [1..7] of var int: X_INTRODUCED_310_ ::var_is_introduced  = [X_INTRODUCED_106_,X_INTRODUCED_107_,X_INTRODUCED_108_,X_INTRODUCED_109_,X_INTRODUCED_110_,X_INTRODUCED_111_,X_INTRODUCED_112_];
array [1..6] of var int: X_INTRODUCED_311_ ::var_is_introduced  = [X_INTRODUCED_121_,X_INTRODUCED_122_,X_INTRODUCED_123_,X_INTRODUCED_124_,X_INTRODUCED_125_,X_INTRODUCED_126_];
array [1..5] of var int: X_INTRODUCED_312_ ::var_is_introduced  = [X_INTRODUCED_136_,X_INTRODUCED_137_,X_INTRODUCED_138_,X_INTRODUCED_139_,X_INTRODUCED_140_];
array [1..4] of var int: X_INTRODUCED_313_ ::var_is_introduced  = [X_INTRODUCED_151_,X_INTRODUCED_152_,X_INTRODUCED_153_,X_INTRODUCED_154_];
array [1..3] of var int: X_INTRODUCED_314_ ::var_is_introduced  = [X_INTRODUCED_166_,X_INTRODUCED_167_,X_INTRODUCED_168_];
array [1..2] of var int: X_INTRODUCED_315_ ::var_is_introduced  = [X_INTRODUCED_181_,X_INTRODUCED_182_];
array [1..1] of var int: X_INTRODUCED_316_ ::var_is_introduced  = [X_INTRODUCED_196_];
constraint fzn_all_different_int(costas);
constraint int_lin_eq(X_INTRODUCED_213_,[X_INTRODUCED_16_,X_INTRODUCED_1_,X_INTRODUCED_0_],0):: defines_var(X_INTRODUCED_16_);
constraint int_lin_eq(X_INTRODUCED_213_,[X_INTRODUCED_17_,X_INTRODUCED_2_,X_INTRODUCED_1_],0):: defines_var(X_INTRODUCED_17_);
constraint int_lin_eq(X_INTRODUCED_213_,[X_INTRODUCED_18_,X_INTRODUCED_3_,X_INTRODUCED_2_],0):: defines_var(X_INTRODUCED_18_);
constraint int_lin_eq(X_INTRODUCED_213_,[X_INTRODUCED_19_,X_INTRODUCED_4_,X_INTRODUCED_3_],0):: defines_var(X_INTRODUCED_19_);
constraint int_lin_eq(X_INTRODUCED_213_,[X_INTRODUCED_20_,X_INTRODUCED_5_,X_INTRODUCED_4_],0):: defines_var(X_INTRODUCED_20_);
constraint int_lin_eq(X_INTRODUCED_213_,[X_INTRODUCED_21_,X_INTRODUCED_6_,X_INTRODUCED_5_],0):: defines_var(X_INTRODUCED_21_);
constraint int_lin_eq(X_INTRODUCED_213_,[X_INTRODUCED_22_,X_INTRODUCED_7_,X_INTRODUCED_6_],0):: defines_var(X_INTRODUCED_22_);
constraint int_lin_eq(X_INTRODUCED_213_,[X_INTRODUCED_23_,X_INTRODUCED_8_,X_INTRODUCED_7_],0):: defines_var(X_INTRODUCED_23_);
constraint int_lin_eq(X_INTRODUCED_213_,[X_INTRODUCED_24_,X_INTRODUCED_9_,X_INTRODUCED_8_],0):: defines_var(X_INTRODUCED_24_);
constraint int_lin_eq(X_INTRODUCED_213_,[X_INTRODUCED_25_,X_INTRODUCED_10_,X_INTRODUCED_9_],0):: defines_var(X_INTRODUCED_25_);
constraint int_lin_eq(X_INTRODUCED_213_,[X_INTRODUCED_26_,X_INTRODUCED_11_,X_INTRODUCED_10_],0):: defines_var(X_INTRODUCED_26_);
constraint int_lin_eq(X_INTRODUCED_213_,[X_INTRODUCED_27_,X_INTRODUCED_12_,X_INTRODUCED_11_],0):: defines_var(X_INTRODUCED_27_);
constraint int_lin_eq(X_INTRODUCED_213_,[X_INTRODUCED_28_,X_INTRODUCED_13_,X_INTRODUCED_12_],0):: defines_var(X_INTRODUCED_28_);
constraint int_lin_eq(X_INTRODUCED_213_,[X_INTRODUCED_31_,X_INTRODUCED_2_,X_INTRODUCED_0_],0):: defines_var(X_INTRODUCED_31_);
constraint int_lin_eq(X_INTRODUCED_213_,[X_INTRODUCED_32_,X_INTRODUCED_3_,X_INTRODUCED_1_],0):: defines_var(X_INTRODUCED_32_);
constraint int_lin_eq(X_INTRODUCED_213_,[X_INTRODUCED_33_,X_INTRODUCED_4_,X_INTRODUCED_2_],0):: defines_var(X_INTRODUCED_33_);
constraint int_lin_eq(X_INTRODUCED_213_,[X_INTRODUCED_34_,X_INTRODUCED_5_,X_INTRODUCED_3_],0):: defines_var(X_INTRODUCED_34_);
constraint int_lin_eq(X_INTRODUCED_213_,[X_INTRODUCED_35_,X_INTRODUCED_6_,X_INTRODUCED_4_],0):: defines_var(X_INTRODUCED_35_);
constraint int_lin_eq(X_INTRODUCED_213_,[X_INTRODUCED_36_,X_INTRODUCED_7_,X_INTRODUCED_5_],0):: defines_var(X_INTRODUCED_36_);
constraint int_lin_eq(X_INTRODUCED_213_,[X_INTRODUCED_37_,X_INTRODUCED_8_,X_INTRODUCED_6_],0):: defines_var(X_INTRODUCED_37_);
constraint int_lin_eq(X_INTRODUCED_213_,[X_INTRODUCED_38_,X_INTRODUCED_9_,X_INTRODUCED_7_],0):: defines_var(X_INTRODUCED_38_);
constraint int_lin_eq(X_INTRODUCED_213_,[X_INTRODUCED_39_,X_INTRODUCED_10_,X_INTRODUCED_8_],0):: defines_var(X_INTRODUCED_39_);
constraint int_lin_eq(X_INTRODUCED_213_,[X_INTRODUCED_40_,X_INTRODUCED_11_,X_INTRODUCED_9_],0):: defines_var(X_INTRODUCED_40_);
constraint int_lin_eq(X_INTRODUCED_213_,[X_INTRODUCED_41_,X_INTRODUCED_12_,X_INTRODUCED_10_],0):: defines_var(X_INTRODUCED_41_);
constraint int_lin_eq(X_INTRODUCED_213_,[X_INTRODUCED_42_,X_INTRODUCED_13_,X_INTRODUCED_11_],0):: defines_var(X_INTRODUCED_42_);
constraint int_lin_eq(X_INTRODUCED_213_,[X_INTRODUCED_46_,X_INTRODUCED_3_,X_INTRODUCED_0_],0):: defines_var(X_INTRODUCED_46_);
constraint int_lin_eq(X_INTRODUCED_213_,[X_INTRODUCED_47_,X_INTRODUCED_4_,X_INTRODUCED_1_],0):: defines_var(X_INTRODUCED_47_);
constraint int_lin_eq(X_INTRODUCED_213_,[X_INTRODUCED_48_,X_INTRODUCED_5_,X_INTRODUCED_2_],0):: defines_var(X_INTRODUCED_48_);
constraint int_lin_eq(X_INTRODUCED_213_,[X_INTRODUCED_49_,X_INTRODUCED_6_,X_INTRODUCED_3_],0):: defines_var(X_INTRODUCED_49_);
constraint int_lin_eq(X_INTRODUCED_213_,[X_INTRODUCED_50_,X_INTRODUCED_7_,X_INTRODUCED_4_],0):: defines_var(X_INTRODUCED_50_);
constraint int_lin_eq(X_INTRODUCED_213_,[X_INTRODUCED_51_,X_INTRODUCED_8_,X_INTRODUCED_5_],0):: defines_var(X_INTRODUCED_51_);
constraint int_lin_eq(X_INTRODUCED_213_,[X_INTRODUCED_52_,X_INTRODUCED_9_,X_INTRODUCED_6_],0):: defines_var(X_INTRODUCED_52_);
constraint int_lin_eq(X_INTRODUCED_213_,[X_INTRODUCED_53_,X_INTRODUCED_10_,X_INTRODUCED_7_],0):: defines_var(X_INTRODUCED_53_);
constraint int_lin_eq(X_INTRODUCED_213_,[X_INTRODUCED_54_,X_INTRODUCED_11_,X_INTRODUCED_8_],0):: defines_var(X_INTRODUCED_54_);
constraint int_lin_eq(X_INTRODUCED_213_,[X_INTRODUCED_55_,X_INTRODUCED_12_,X_INTRODUCED_9_],0):: defines_var(X_INTRODUCED_55_);
constraint int_lin_eq(X_INTRODUCED_213_,[X_INTRODUCED_56_,X_INTRODUCED_13_,X_INTRODUCED_10_],0):: defines_var(X_INTRODUCED_56_);
constraint int_lin_eq(X_INTRODUCED_213_,[X_INTRODUCED_61_,X_INTRODUCED_4_,X_INTRODUCED_0_],0):: defines_var(X_INTRODUCED_61_);
constraint int_lin_eq(X_INTRODUCED_213_,[X_INTRODUCED_62_,X_INTRODUCED_5_,X_INTRODUCED_1_],0):: defines_var(X_INTRODUCED_62_);
constraint int_lin_eq(X_INTRODUCED_213_,[X_INTRODUCED_63_,X_INTRODUCED_6_,X_INTRODUCED_2_],0):: defines_var(X_INTRODUCED_63_);
constraint int_lin_eq(X_INTRODUCED_213_,[X_INTRODUCED_64_,X_INTRODUCED_7_,X_INTRODUCED_3_],0):: defines_var(X_INTRODUCED_64_);
constraint int_lin_eq(X_INTRODUCED_213_,[X_INTRODUCED_65_,X_INTRODUCED_8_,X_INTRODUCED_4_],0):: defines_var(X_INTRODUCED_65_);
constraint int_lin_eq(X_INTRODUCED_213_,[X_INTRODUCED_66_,X_INTRODUCED_9_,X_INTRODUCED_5_],0):: defines_var(X_INTRODUCED_66_);
constraint int_lin_eq(X_INTRODUCED_213_,[X_INTRODUCED_67_,X_INTRODUCED_10_,X_INTRODUCED_6_],0):: defines_var(X_INTRODUCED_67_);
constraint int_lin_eq(X_INTRODUCED_213_,[X_INTRODUCED_68_,X_INTRODUCED_11_,X_INTRODUCED_7_],0):: defines_var(X_INTRODUCED_68_);
constraint int_lin_eq(X_INTRODUCED_213_,[X_INTRODUCED_69_,X_INTRODUCED_12_,X_INTRODUCED_8_],0):: defines_var(X_INTRODUCED_69_);
constraint int_lin_eq(X_INTRODUCED_213_,[X_INTRODUCED_70_,X_INTRODUCED_13_,X_INTRODUCED_9_],0):: defines_var(X_INTRODUCED_70_);
constraint int_lin_eq(X_INTRODUCED_213_,[X_INTRODUCED_76_,X_INTRODUCED_5_,X_INTRODUCED_0_],0):: defines_var(X_INTRODUCED_76_);
constraint int_lin_eq(X_INTRODUCED_213_,[X_INTRODUCED_77_,X_INTRODUCED_6_,X_INTRODUCED_1_],0):: defines_var(X_INTRODUCED_77_);
constraint int_lin_eq(X_INTRODUCED_213_,[X_INTRODUCED_78_,X_INTRODUCED_7_,X_INTRODUCED_2_],0):: defines_var(X_INTRODUCED_78_);
constraint int_lin_eq(X_INTRODUCED_213_,[X_INTRODUCED_79_,X_INTRODUCED_8_,X_INTRODUCED_3_],0):: defines_var(X_INTRODUCED_79_);
constraint int_lin_eq(X_INTRODUCED_213_,[X_INTRODUCED_80_,X_INTRODUCED_9_,X_INTRODUCED_4_],0):: defines_var(X_INTRODUCED_80_);
constraint int_lin_eq(X_INTRODUCED_213_,[X_INTRODUCED_81_,X_INTRODUCED_10_,X_INTRODUCED_5_],0):: defines_var(X_INTRODUCED_81_);
constraint int_lin_eq(X_INTRODUCED_213_,[X_INTRODUCED_82_,X_INTRODUCED_11_,X_INTRODUCED_6_],0):: defines_var(X_INTRODUCED_82_);
constraint int_lin_eq(X_INTRODUCED_213_,[X_INTRODUCED_83_,X_INTRODUCED_12_,X_INTRODUCED_7_],0):: defines_var(X_INTRODUCED_83_);
constraint int_lin_eq(X_INTRODUCED_213_,[X_INTRODUCED_84_,X_INTRODUCED_13_,X_INTRODUCED_8_],0):: defines_var(X_INTRODUCED_84_);
constraint int_lin_eq(X_INTRODUCED_213_,[X_INTRODUCED_91_,X_INTRODUCED_6_,X_INTRODUCED_0_],0):: defines_var(X_INTRODUCED_91_);
constraint int_lin_eq(X_INTRODUCED_213_,[X_INTRODUCED_92_,X_INTRODUCED_7_,X_INTRODUCED_1_],0):: defines_var(X_INTRODUCED_92_);
constraint int_lin_eq(X_INTRODUCED_213_,[X_INTRODUCED_93_,X_INTRODUCED_8_,X_INTRODUCED_2_],0):: defines_var(X_INTRODUCED_93_);
constraint int_lin_eq(X_INTRODUCED_213_,[X_INTRODUCED_94_,X_INTRODUCED_9_,X_INTRODUCED_3_],0):: defines_var(X_INTRODUCED_94_);
constraint int_lin_eq(X_INTRODUCED_213_,[X_INTRODUCED_95_,X_INTRODUCED_10_,X_INTRODUCED_4_],0):: defines_var(X_INTRODUCED_95_);
constraint int_lin_eq(X_INTRODUCED_213_,[X_INTRODUCED_96_,X_INTRODUCED_11_,X_INTRODUCED_5_],0):: defines_var(X_INTRODUCED_96_);
constraint int_lin_eq(X_INTRODUCED_213_,[X_INTRODUCED_97_,X_INTRODUCED_12_,X_INTRODUCED_6_],0):: defines_var(X_INTRODUCED_97_);
constraint int_lin_eq(X_INTRODUCED_213_,[X_INTRODUCED_98_,X_INTRODUCED_13_,X_INTRODUCED_7_],0):: defines_var(X_INTRODUCED_98_);
constraint int_lin_eq(X_INTRODUCED_213_,[X_INTRODUCED_106_,X_INTRODUCED_7_,X_INTRODUCED_0_],0):: defines_var(X_INTRODUCED_106_);
constraint int_lin_eq(X_INTRODUCED_213_,[X_INTRODUCED_107_,X_INTRODUCED_8_,X_INTRODUCED_1_],0):: defines_var(X_INTRODUCED_107_);
constraint int_lin_eq(X_INTRODUCED_213_,[X_INTRODUCED_108_,X_INTRODUCED_9_,X_INTRODUCED_2_],0):: defines_var(X_INTRODUCED_108_);
constraint int_lin_eq(X_INTRODUCED_213_,[X_INTRODUCED_109_,X_INTRODUCED_10_,X_INTRODUCED_3_],0):: defines_var(X_INTRODUCED_109_);
constraint int_lin_eq(X_INTRODUCED_213_,[X_INTRODUCED_110_,X_INTRODUCED_11_,X_INTRODUCED_4_],0):: defines_var(X_INTRODUCED_110_);
constraint int_lin_eq(X_INTRODUCED_213_,[X_INTRODUCED_111_,X_INTRODUCED_12_,X_INTRODUCED_5_],0):: defines_var(X_INTRODUCED_111_);
constraint int_lin_eq(X_INTRODUCED_213_,[X_INTRODUCED_112_,X_INTRODUCED_13_,X_INTRODUCED_6_],0):: defines_var(X_INTRODUCED_112_);
constraint int_lin_eq(X_INTRODUCED_213_,[X_INTRODUCED_121_,X_INTRODUCED_8_,X_INTRODUCED_0_],0):: defines_var(X_INTRODUCED_121_);
constraint int_lin_eq(X_INTRODUCED_213_,[X_INTRODUCED_122_,X_INTRODUCED_9_,X_INTRODUCED_1_],0):: defines_var(X_INTRODUCED_122_);
constraint int_lin_eq(X_INTRODUCED_213_,[X_INTRODUCED_123_,X_INTRODUCED_10_,X_INTRODUCED_2_],0):: defines_var(X_INTRODUCED_123_);
constraint int_lin_eq(X_INTRODUCED_213_,[X_INTRODUCED_124_,X_INTRODUCED_11_,X_INTRODUCED_3_],0):: defines_var(X_INTRODUCED_124_);
constraint int_lin_eq(X_INTRODUCED_213_,[X_INTRODUCED_125_,X_INTRODUCED_12_,X_INTRODUCED_4_],0):: defines_var(X_INTRODUCED_125_);
constraint int_lin_eq(X_INTRODUCED_213_,[X_INTRODUCED_126_,X_INTRODUCED_13_,X_INTRODUCED_5_],0):: defines_var(X_INTRODUCED_126_);
constraint int_lin_eq(X_INTRODUCED_213_,[X_INTRODUCED_136_,X_INTRODUCED_9_,X_INTRODUCED_0_],0):: defines_var(X_INTRODUCED_136_);
constraint int_lin_eq(X_INTRODUCED_213_,[X_INTRODUCED_137_,X_INTRODUCED_10_,X_INTRODUCED_1_],0):: defines_var(X_INTRODUCED_137_);
constraint int_lin_eq(X_INTRODUCED_213_,[X_INTRODUCED_138_,X_INTRODUCED_11_,X_INTRODUCED_2_],0):: defines_var(X_INTRODUCED_138_);
constraint int_lin_eq(X_INTRODUCED_213_,[X_INTRODUCED_139_,X_INTRODUCED_12_,X_INTRODUCED_3_],0):: defines_var(X_INTRODUCED_139_);
constraint int_lin_eq(X_INTRODUCED_213_,[X_INTRODUCED_140_,X_INTRODUCED_13_,X_INTRODUCED_4_],0):: defines_var(X_INTRODUCED_140_);
constraint int_lin_eq(X_INTRODUCED_213_,[X_INTRODUCED_151_,X_INTRODUCED_10_,X_INTRODUCED_0_],0):: defines_var(X_INTRODUCED_151_);
constraint int_lin_eq(X_INTRODUCED_213_,[X_INTRODUCED_152_,X_INTRODUCED_11_,X_INTRODUCED_1_],0):: defines_var(X_INTRODUCED_152_);
constraint int_lin_eq(X_INTRODUCED_213_,[X_INTRODUCED_153_,X_INTRODUCED_12_,X_INTRODUCED_2_],0):: defines_var(X_INTRODUCED_153_);
constraint int_lin_eq(X_INTRODUCED_213_,[X_INTRODUCED_154_,X_INTRODUCED_13_,X_INTRODUCED_3_],0):: defines_var(X_INTRODUCED_154_);
constraint int_lin_eq(X_INTRODUCED_213_,[X_INTRODUCED_166_,X_INTRODUCED_11_,X_INTRODUCED_0_],0):: defines_var(X_INTRODUCED_166_);
constraint int_lin_eq(X_INTRODUCED_213_,[X_INTRODUCED_167_,X_INTRODUCED_12_,X_INTRODUCED_1_],0):: defines_var(X_INTRODUCED_167_);
constraint int_lin_eq(X_INTRODUCED_213_,[X_INTRODUCED_168_,X_INTRODUCED_13_,X_INTRODUCED_2_],0):: defines_var(X_INTRODUCED_168_);
constraint int_lin_eq(X_INTRODUCED_213_,[X_INTRODUCED_181_,X_INTRODUCED_12_,X_INTRODUCED_0_],0):: defines_var(X_INTRODUCED_181_);
constraint int_lin_eq(X_INTRODUCED_213_,[X_INTRODUCED_182_,X_INTRODUCED_13_,X_INTRODUCED_1_],0):: defines_var(X_INTRODUCED_182_);
constraint int_lin_eq(X_INTRODUCED_213_,[X_INTRODUCED_196_,X_INTRODUCED_13_,X_INTRODUCED_0_],0):: defines_var(X_INTRODUCED_196_);
constraint fzn_all_different_int(X_INTRODUCED_304_);
constraint fzn_all_different_int(X_INTRODUCED_305_);
constraint fzn_all_different_int(X_INTRODUCED_306_);
constraint fzn_all_different_int(X_INTRODUCED_307_);
constraint fzn_all_different_int(X_INTRODUCED_308_);
constraint fzn_all_different_int(X_INTRODUCED_309_);
constraint fzn_all_different_int(X_INTRODUCED_310_);
constraint fzn_all_different_int(X_INTRODUCED_311_);
constraint fzn_all_different_int(X_INTRODUCED_312_);
constraint fzn_all_different_int(X_INTRODUCED_313_);
constraint fzn_all_different_int(X_INTRODUCED_314_);
constraint fzn_all_different_int(X_INTRODUCED_315_);
constraint fzn_all_different_int(X_INTRODUCED_316_);
constraint int_lin_le(X_INTRODUCED_211_,[X_INTRODUCED_0_,X_INTRODUCED_13_],-1);
constraint int_lin_eq(X_INTRODUCED_320_,[X_INTRODUCED_17_,X_INTRODUCED_46_,X_INTRODUCED_31_,X_INTRODUCED_32_],0);
constraint int_lin_eq(X_INTRODUCED_320_,[X_INTRODUCED_18_,X_INTRODUCED_47_,X_INTRODUCED_32_,X_INTRODUCED_33_],0);
constraint int_lin_eq(X_INTRODUCED_320_,[X_INTRODUCED_19_,X_INTRODUCED_48_,X_INTRODUCED_33_,X_INTRODUCED_34_],0);
constraint int_lin_eq(X_INTRODUCED_320_,[X_INTRODUCED_20_,X_INTRODUCED_49_,X_INTRODUCED_34_,X_INTRODUCED_35_],0);
constraint int_lin_eq(X_INTRODUCED_320_,[X_INTRODUCED_21_,X_INTRODUCED_50_,X_INTRODUCED_35_,X_INTRODUCED_36_],0);
constraint int_lin_eq(X_INTRODUCED_320_,[X_INTRODUCED_22_,X_INTRODUCED_51_,X_INTRODUCED_36_,X_INTRODUCED_37_],0);
constraint int_lin_eq(X_INTRODUCED_320_,[X_INTRODUCED_23_,X_INTRODUCED_52_,X_INTRODUCED_37_,X_INTRODUCED_38_],0);
constraint int_lin_eq(X_INTRODUCED_320_,[X_INTRODUCED_24_,X_INTRODUCED_53_,X_INTRODUCED_38_,X_INTRODUCED_39_],0);
constraint int_lin_eq(X_INTRODUCED_320_,[X_INTRODUCED_25_,X_INTRODUCED_54_,X_INTRODUCED_39_,X_INTRODUCED_40_],0);
constraint int_lin_eq(X_INTRODUCED_320_,[X_INTRODUCED_26_,X_INTRODUCED_55_,X_INTRODUCED_40_,X_INTRODUCED_41_],0);
constraint int_lin_eq(X_INTRODUCED_320_,[X_INTRODUCED_27_,X_INTRODUCED_56_,X_INTRODUCED_41_,X_INTRODUCED_42_],0);
constraint int_lin_eq(X_INTRODUCED_320_,[X_INTRODUCED_32_,X_INTRODUCED_61_,X_INTRODUCED_46_,X_INTRODUCED_47_],0);
constraint int_lin_eq(X_INTRODUCED_320_,[X_INTRODUCED_33_,X_INTRODUCED_62_,X_INTRODUCED_47_,X_INTRODUCED_48_],0);
constraint int_lin_eq(X_INTRODUCED_320_,[X_INTRODUCED_34_,X_INTRODUCED_63_,X_INTRODUCED_48_,X_INTRODUCED_49_],0);
constraint int_lin_eq(X_INTRODUCED_320_,[X_INTRODUCED_35_,X_INTRODUCED_64_,X_INTRODUCED_49_,X_INTRODUCED_50_],0);
constraint int_lin_eq(X_INTRODUCED_320_,[X_INTRODUCED_36_,X_INTRODUCED_65_,X_INTRODUCED_50_,X_INTRODUCED_51_],0);
constraint int_lin_eq(X_INTRODUCED_320_,[X_INTRODUCED_37_,X_INTRODUCED_66_,X_INTRODUCED_51_,X_INTRODUCED_52_],0);
constraint int_lin_eq(X_INTRODUCED_320_,[X_INTRODUCED_38_,X_INTRODUCED_67_,X_INTRODUCED_52_,X_INTRODUCED_53_],0);
constraint int_lin_eq(X_INTRODUCED_320_,[X_INTRODUCED_39_,X_INTRODUCED_68_,X_INTRODUCED_53_,X_INTRODUCED_54_],0);
constraint int_lin_eq(X_INTRODUCED_320_,[X_INTRODUCED_40_,X_INTRODUCED_69_,X_INTRODUCED_54_,X_INTRODUCED_55_],0);
constraint int_lin_eq(X_INTRODUCED_320_,[X_INTRODUCED_41_,X_INTRODUCED_70_,X_INTRODUCED_55_,X_INTRODUCED_56_],0);
constraint int_lin_eq(X_INTRODUCED_320_,[X_INTRODUCED_47_,X_INTRODUCED_76_,X_INTRODUCED_61_,X_INTRODUCED_62_],0);
constraint int_lin_eq(X_INTRODUCED_320_,[X_INTRODUCED_48_,X_INTRODUCED_77_,X_INTRODUCED_62_,X_INTRODUCED_63_],0);
constraint int_lin_eq(X_INTRODUCED_320_,[X_INTRODUCED_49_,X_INTRODUCED_78_,X_INTRODUCED_63_,X_INTRODUCED_64_],0);
constraint int_lin_eq(X_INTRODUCED_320_,[X_INTRODUCED_50_,X_INTRODUCED_79_,X_INTRODUCED_64_,X_INTRODUCED_65_],0);
constraint int_lin_eq(X_INTRODUCED_320_,[X_INTRODUCED_51_,X_INTRODUCED_80_,X_INTRODUCED_65_,X_INTRODUCED_66_],0);
constraint int_lin_eq(X_INTRODUCED_320_,[X_INTRODUCED_52_,X_INTRODUCED_81_,X_INTRODUCED_66_,X_INTRODUCED_67_],0);
constraint int_lin_eq(X_INTRODUCED_320_,[X_INTRODUCED_53_,X_INTRODUCED_82_,X_INTRODUCED_67_,X_INTRODUCED_68_],0);
constraint int_lin_eq(X_INTRODUCED_320_,[X_INTRODUCED_54_,X_INTRODUCED_83_,X_INTRODUCED_68_,X_INTRODUCED_69_],0);
constraint int_lin_eq(X_INTRODUCED_320_,[X_INTRODUCED_55_,X_INTRODUCED_84_,X_INTRODUCED_69_,X_INTRODUCED_70_],0);
constraint int_lin_eq(X_INTRODUCED_320_,[X_INTRODUCED_62_,X_INTRODUCED_91_,X_INTRODUCED_76_,X_INTRODUCED_77_],0);
constraint int_lin_eq(X_INTRODUCED_320_,[X_INTRODUCED_63_,X_INTRODUCED_92_,X_INTRODUCED_77_,X_INTRODUCED_78_],0);
constraint int_lin_eq(X_INTRODUCED_320_,[X_INTRODUCED_64_,X_INTRODUCED_93_,X_INTRODUCED_78_,X_INTRODUCED_79_],0);
constraint int_lin_eq(X_INTRODUCED_320_,[X_INTRODUCED_65_,X_INTRODUCED_94_,X_INTRODUCED_79_,X_INTRODUCED_80_],0);
constraint int_lin_eq(X_INTRODUCED_320_,[X_INTRODUCED_66_,X_INTRODUCED_95_,X_INTRODUCED_80_,X_INTRODUCED_81_],0);
constraint int_lin_eq(X_INTRODUCED_320_,[X_INTRODUCED_67_,X_INTRODUCED_96_,X_INTRODUCED_81_,X_INTRODUCED_82_],0);
constraint int_lin_eq(X_INTRODUCED_320_,[X_INTRODUCED_68_,X_INTRODUCED_97_,X_INTRODUCED_82_,X_INTRODUCED_83_],0);
constraint int_lin_eq(X_INTRODUCED_320_,[X_INTRODUCED_69_,X_INTRODUCED_98_,X_INTRODUCED_83_,X_INTRODUCED_84_],0);
constraint int_lin_eq(X_INTRODUCED_320_,[X_INTRODUCED_77_,X_INTRODUCED_106_,X_INTRODUCED_91_,X_INTRODUCED_92_],0);
constraint int_lin_eq(X_INTRODUCED_320_,[X_INTRODUCED_78_,X_INTRODUCED_107_,X_INTRODUCED_92_,X_INTRODUCED_93_],0);
constraint int_lin_eq(X_INTRODUCED_320_,[X_INTRODUCED_79_,X_INTRODUCED_108_,X_INTRODUCED_93_,X_INTRODUCED_94_],0);
constraint int_lin_eq(X_INTRODUCED_320_,[X_INTRODUCED_80_,X_INTRODUCED_109_,X_INTRODUCED_94_,X_INTRODUCED_95_],0);
constraint int_lin_eq(X_INTRODUCED_320_,[X_INTRODUCED_81_,X_INTRODUCED_110_,X_INTRODUCED_95_,X_INTRODUCED_96_],0);
constraint int_lin_eq(X_INTRODUCED_320_,[X_INTRODUCED_82_,X_INTRODUCED_111_,X_INTRODUCED_96_,X_INTRODUCED_97_],0);
constraint int_lin_eq(X_INTRODUCED_320_,[X_INTRODUCED_83_,X_INTRODUCED_112_,X_INTRODUCED_97_,X_INTRODUCED_98_],0);
constraint int_lin_eq(X_INTRODUCED_320_,[X_INTRODUCED_92_,X_INTRODUCED_121_,X_INTRODUCED_106_,X_INTRODUCED_107_],0);
constraint int_lin_eq(X_INTRODUCED_320_,[X_INTRODUCED_93_,X_INTRODUCED_122_,X_INTRODUCED_107_,X_INTRODUCED_108_],0);
constraint int_lin_eq(X_INTRODUCED_320_,[X_INTRODUCED_94_,X_INTRODUCED_123_,X_INTRODUCED_108_,X_INTRODUCED_109_],0);
constraint int_lin_eq(X_INTRODUCED_320_,[X_INTRODUCED_95_,X_INTRODUCED_124_,X_INTRODUCED_109_,X_INTRODUCED_110_],0);
constraint int_lin_eq(X_INTRODUCED_320_,[X_INTRODUCED_96_,X_INTRODUCED_125_,X_INTRODUCED_110_,X_INTRODUCED_111_],0);
constraint int_lin_eq(X_INTRODUCED_320_,[X_INTRODUCED_97_,X_INTRODUCED_126_,X_INTRODUCED_111_,X_INTRODUCED_112_],0);
constraint int_lin_eq(X_INTRODUCED_320_,[X_INTRODUCED_107_,X_INTRODUCED_136_,X_INTRODUCED_121_,X_INTRODUCED_122_],0);
constraint int_lin_eq(X_INTRODUCED_320_,[X_INTRODUCED_108_,X_INTRODUCED_137_,X_INTRODUCED_122_,X_INTRODUCED_123_],0);
constraint int_lin_eq(X_INTRODUCED_320_,[X_INTRODUCED_109_,X_INTRODUCED_138_,X_INTRODUCED_123_,X_INTRODUCED_124_],0);
constraint int_lin_eq(X_INTRODUCED_320_,[X_INTRODUCED_110_,X_INTRODUCED_139_,X_INTRODUCED_124_,X_INTRODUCED_125_],0);
constraint int_lin_eq(X_INTRODUCED_320_,[X_INTRODUCED_111_,X_INTRODUCED_140_,X_INTRODUCED_125_,X_INTRODUCED_126_],0);
constraint int_lin_eq(X_INTRODUCED_320_,[X_INTRODUCED_122_,X_INTRODUCED_151_,X_INTRODUCED_136_,X_INTRODUCED_137_],0);
constraint int_lin_eq(X_INTRODUCED_320_,[X_INTRODUCED_123_,X_INTRODUCED_152_,X_INTRODUCED_137_,X_INTRODUCED_138_],0);
constraint int_lin_eq(X_INTRODUCED_320_,[X_INTRODUCED_124_,X_INTRODUCED_153_,X_INTRODUCED_138_,X_INTRODUCED_139_],0);
constraint int_lin_eq(X_INTRODUCED_320_,[X_INTRODUCED_125_,X_INTRODUCED_154_,X_INTRODUCED_139_,X_INTRODUCED_140_],0);
constraint int_lin_eq(X_INTRODUCED_320_,[X_INTRODUCED_137_,X_INTRODUCED_166_,X_INTRODUCED_151_,X_INTRODUCED_152_],0);
constraint int_lin_eq(X_INTRODUCED_320_,[X_INTRODUCED_138_,X_INTRODUCED_167_,X_INTRODUCED_152_,X_INTRODUCED_153_],0);
constraint int_lin_eq(X_INTRODUCED_320_,[X_INTRODUCED_139_,X_INTRODUCED_168_,X_INTRODUCED_153_,X_INTRODUCED_154_],0);
constraint int_lin_eq(X_INTRODUCED_320_,[X_INTRODUCED_152_,X_INTRODUCED_181_,X_INTRODUCED_166_,X_INTRODUCED_167_],0);
constraint int_lin_eq(X_INTRODUCED_320_,[X_INTRODUCED_153_,X_INTRODUCED_182_,X_INTRODUCED_167_,X_INTRODUCED_168_],0);
constraint int_lin_eq(X_INTRODUCED_320_,[X_INTRODUCED_167_,X_INTRODUCED_196_,X_INTRODUCED_181_,X_INTRODUCED_182_],0);
solve  satisfy;
